data/lp_files/pEFS/87_2.lp
\ Model foo
\ LP format - for model browsing. Use MPS format to capture full model detail.
Minimize
  z
Subject To
 allocateEach[1]: x[1,1] + x[2,1] + x[3,1] + x[4,1] + x[5,1] = 1
 allocateEach[2]: x[1,2] + x[2,2] + x[3,2] + x[4,2] + x[5,2] = 1
 allocateEach[3]: x[1,3] + x[2,3] + x[3,3] + x[4,3] + x[5,3] = 1
 allocateEach[4]: x[1,4] + x[2,4] + x[3,4] + x[4,4] + x[5,4] = 1
 allocateEach[5]: x[1,5] + x[2,5] + x[3,5] + x[4,5] + x[5,5] = 1
 allocateEach[6]: x[1,6] + x[2,6] + x[3,6] + x[4,6] + x[5,6] = 1
 allocateEach[7]: x[1,7] + x[2,7] + x[3,7] + x[4,7] + x[5,7] = 1
 allocateAllCash: cashProportion[1] + cashProportion[2] + cashProportion[3]
   + cashProportion[4] + cashProportion[5] = 1
 findWorstP[1,2]: z + 0.0463091599518385 cashProportion[1]
   - 0.0463091599518385 cashProportion[2] + 0.2179000339600506 x[1,1]
   + 0.3023988144855052 x[1,2] + 0.00815041215152357 x[1,3]
   + 0.066222098731129 x[1,4] + 0.1056775030100954 x[1,5]
   + 0.067179154703467 x[1,6] + 0.1861628230063906 x[1,7]
   - 0.2179000339600506 x[2,1] - 0.3023988144855052 x[2,2]
   - 0.00815041215152357 x[2,3] - 0.066222098731129 x[2,4]
   - 0.1056775030100954 x[2,5] - 0.067179154703467 x[2,6]
   - 0.1861628230063906 x[2,7] >= 0
 findWorstP[1,3]: z + 0.0463091599518385 cashProportion[1]
   - 0.0463091599518385 cashProportion[3] + 0.2179000339600506 x[1,1]
   + 0.3023988144855052 x[1,2] + 0.00815041215152357 x[1,3]
   + 0.066222098731129 x[1,4] + 0.1056775030100954 x[1,5]
   + 0.067179154703467 x[1,6] + 0.1861628230063906 x[1,7]
   - 0.2179000339600506 x[3,1] - 0.3023988144855052 x[3,2]
   - 0.00815041215152357 x[3,3] - 0.066222098731129 x[3,4]
   - 0.1056775030100954 x[3,5] - 0.067179154703467 x[3,6]
   - 0.1861628230063906 x[3,7] >= 0
 findWorstP[1,4]: z + 0.0463091599518385 cashProportion[1]
   - 0.0463091599518385 cashProportion[4] + 0.2179000339600506 x[1,1]
   + 0.3023988144855052 x[1,2] + 0.00815041215152357 x[1,3]
   + 0.066222098731129 x[1,4] + 0.1056775030100954 x[1,5]
   + 0.067179154703467 x[1,6] + 0.1861628230063906 x[1,7]
   - 0.2179000339600506 x[4,1] - 0.3023988144855052 x[4,2]
   - 0.00815041215152357 x[4,3] - 0.066222098731129 x[4,4]
   - 0.1056775030100954 x[4,5] - 0.067179154703467 x[4,6]
   - 0.1861628230063906 x[4,7] >= 0
 findWorstP[1,5]: z + 0.0463091599518385 cashProportion[1]
   - 0.0463091599518385 cashProportion[5] + 0.2179000339600506 x[1,1]
   + 0.3023988144855052 x[1,2] + 0.00815041215152357 x[1,3]
   + 0.066222098731129 x[1,4] + 0.1056775030100954 x[1,5]
   + 0.067179154703467 x[1,6] + 0.1861628230063906 x[1,7]
   - 0.2179000339600506 x[5,1] - 0.3023988144855052 x[5,2]
   - 0.00815041215152357 x[5,3] - 0.066222098731129 x[5,4]
   - 0.1056775030100954 x[5,5] - 0.067179154703467 x[5,6]
   - 0.1861628230063906 x[5,7] >= 0
 findWorstP[2,1]: z - 0.0360941335001684 cashProportion[1]
   + 0.0360941335001684 cashProportion[2] - 0.1938254968959045 x[1,1]
   - 0.2170941816256797 x[1,2] - 0.0163626738534097 x[1,3]
   - 0.2027768420039462 x[1,4] - 0.1296982530439386 x[1,5]
   - 0.1754656143221521 x[1,6] - 0.0286828047548005 x[1,7]
   + 0.1938254968959045 x[2,1] + 0.2170941816256797 x[2,2]
   + 0.0163626738534097 x[2,3] + 0.2027768420039462 x[2,4]
   + 0.1296982530439386 x[2,5] + 0.1754656143221521 x[2,6]
   + 0.0286828047548005 x[2,7] >= 0
 findWorstP[2,3]: z + 0.0360941335001684 cashProportion[2]
   - 0.0360941335001684 cashProportion[3] + 0.1938254968959045 x[2,1]
   + 0.2170941816256797 x[2,2] + 0.0163626738534097 x[2,3]
   + 0.2027768420039462 x[2,4] + 0.1296982530439386 x[2,5]
   + 0.1754656143221521 x[2,6] + 0.0286828047548005 x[2,7]
   - 0.1938254968959045 x[3,1] - 0.2170941816256797 x[3,2]
   - 0.0163626738534097 x[3,3] - 0.2027768420039462 x[3,4]
   - 0.1296982530439386 x[3,5] - 0.1754656143221521 x[3,6]
   - 0.0286828047548005 x[3,7] >= 0
 findWorstP[2,4]: z + 0.0360941335001684 cashProportion[2]
   - 0.0360941335001684 cashProportion[4] + 0.1938254968959045 x[2,1]
   + 0.2170941816256797 x[2,2] + 0.0163626738534097 x[2,3]
   + 0.2027768420039462 x[2,4] + 0.1296982530439386 x[2,5]
   + 0.1754656143221521 x[2,6] + 0.0286828047548005 x[2,7]
   - 0.1938254968959045 x[4,1] - 0.2170941816256797 x[4,2]
   - 0.0163626738534097 x[4,3] - 0.2027768420039462 x[4,4]
   - 0.1296982530439386 x[4,5] - 0.1754656143221521 x[4,6]
   - 0.0286828047548005 x[4,7] >= 0
 findWorstP[2,5]: z + 0.0360941335001684 cashProportion[2]
   - 0.0360941335001684 cashProportion[5] + 0.1938254968959045 x[2,1]
   + 0.2170941816256797 x[2,2] + 0.0163626738534097 x[2,3]
   + 0.2027768420039462 x[2,4] + 0.1296982530439386 x[2,5]
   + 0.1754656143221521 x[2,6] + 0.0286828047548005 x[2,7]
   - 0.1938254968959045 x[5,1] - 0.2170941816256797 x[5,2]
   - 0.0163626738534097 x[5,3] - 0.2027768420039462 x[5,4]
   - 0.1296982530439386 x[5,5] - 0.1754656143221521 x[5,6]
   - 0.0286828047548005 x[5,7] >= 0
 findWorstP[3,1]: z - 0.0414719787663469 cashProportion[1]
   + 0.0414719787663469 cashProportion[3] - 0.0502916862506566 x[1,1]
   - 0.1604965578257624 x[1,2] - 0.2716691089054162 x[1,3]
   - 0.036827117144516 x[1,4] - 0.139649976499212 x[1,5]
   - 0.2751527551217894 x[1,6] - 0.0244408194863004 x[1,7]
   + 0.0502916862506566 x[3,1] + 0.1604965578257624 x[3,2]
   + 0.2716691089054162 x[3,3] + 0.036827117144516 x[3,4]
   + 0.139649976499212 x[3,5] + 0.2751527551217894 x[3,6]
   + 0.0244408194863004 x[3,7] >= 0
 findWorstP[3,2]: z - 0.0414719787663469 cashProportion[2]
   + 0.0414719787663469 cashProportion[3] - 0.0502916862506566 x[2,1]
   - 0.1604965578257624 x[2,2] - 0.2716691089054162 x[2,3]
   - 0.036827117144516 x[2,4] - 0.139649976499212 x[2,5]
   - 0.2751527551217894 x[2,6] - 0.0244408194863004 x[2,7]
   + 0.0502916862506566 x[3,1] + 0.1604965578257624 x[3,2]
   + 0.2716691089054162 x[3,3] + 0.036827117144516 x[3,4]
   + 0.139649976499212 x[3,5] + 0.2751527551217894 x[3,6]
   + 0.0244408194863004 x[3,7] >= 0
 findWorstP[3,4]: z + 0.0414719787663469 cashProportion[3]
   - 0.0414719787663469 cashProportion[4] + 0.0502916862506566 x[3,1]
   + 0.1604965578257624 x[3,2] + 0.2716691089054162 x[3,3]
   + 0.036827117144516 x[3,4] + 0.139649976499212 x[3,5]
   + 0.2751527551217894 x[3,6] + 0.0244408194863004 x[3,7]
   - 0.0502916862506566 x[4,1] - 0.1604965578257624 x[4,2]
   - 0.2716691089054162 x[4,3] - 0.036827117144516 x[4,4]
   - 0.139649976499212 x[4,5] - 0.2751527551217894 x[4,6]
   - 0.0244408194863004 x[4,7] >= 0
 findWorstP[3,5]: z + 0.0414719787663469 cashProportion[3]
   - 0.0414719787663469 cashProportion[5] + 0.0502916862506566 x[3,1]
   + 0.1604965578257624 x[3,2] + 0.2716691089054162 x[3,3]
   + 0.036827117144516 x[3,4] + 0.139649976499212 x[3,5]
   + 0.2751527551217894 x[3,6] + 0.0244408194863004 x[3,7]
   - 0.0502916862506566 x[5,1] - 0.1604965578257624 x[5,2]
   - 0.2716691089054162 x[5,3] - 0.036827117144516 x[5,4]
   - 0.139649976499212 x[5,5] - 0.2751527551217894 x[5,6]
   - 0.0244408194863004 x[5,7] >= 0
 findWorstP[4,1]: z - 0.0302163490592643 cashProportion[1]
   + 0.0302163490592643 cashProportion[4] - 0.2014423270617622 x[1,1]
   - 0.1704000644615447 x[1,2] - 0.1702590548326014 x[1,3]
   - 0.0311429837637484 x[1,4] - 0.1801700173240401 x[1,5]
   - 0.1045888562104669 x[1,6] - 0.1117803472865718 x[1,7]
   + 0.2014423270617622 x[4,1] + 0.1704000644615447 x[4,2]
   + 0.1702590548326014 x[4,3] + 0.0311429837637484 x[4,4]
   + 0.1801700173240401 x[4,5] + 0.1045888562104669 x[4,6]
   + 0.1117803472865718 x[4,7] >= 0
 findWorstP[4,2]: z - 0.0302163490592643 cashProportion[2]
   + 0.0302163490592643 cashProportion[4] - 0.2014423270617622 x[2,1]
   - 0.1704000644615447 x[2,2] - 0.1702590548326014 x[2,3]
   - 0.0311429837637484 x[2,4] - 0.1801700173240401 x[2,5]
   - 0.1045888562104669 x[2,6] - 0.1117803472865718 x[2,7]
   + 0.2014423270617622 x[4,1] + 0.1704000644615447 x[4,2]
   + 0.1702590548326014 x[4,3] + 0.0311429837637484 x[4,4]
   + 0.1801700173240401 x[4,5] + 0.1045888562104669 x[4,6]
   + 0.1117803472865718 x[4,7] >= 0
 findWorstP[4,3]: z - 0.0302163490592643 cashProportion[3]
   + 0.0302163490592643 cashProportion[4] - 0.2014423270617622 x[3,1]
   - 0.1704000644615447 x[3,2] - 0.1702590548326014 x[3,3]
   - 0.0311429837637484 x[3,4] - 0.1801700173240401 x[3,5]
   - 0.1045888562104669 x[3,6] - 0.1117803472865718 x[3,7]
   + 0.2014423270617622 x[4,1] + 0.1704000644615447 x[4,2]
   + 0.1702590548326014 x[4,3] + 0.0311429837637484 x[4,4]
   + 0.1801700173240401 x[4,5] + 0.1045888562104669 x[4,6]
   + 0.1117803472865718 x[4,7] >= 0
 findWorstP[4,5]: z + 0.0302163490592643 cashProportion[4]
   - 0.0302163490592643 cashProportion[5] + 0.2014423270617622 x[4,1]
   + 0.1704000644615447 x[4,2] + 0.1702590548326014 x[4,3]
   + 0.0311429837637484 x[4,4] + 0.1801700173240401 x[4,5]
   + 0.1045888562104669 x[4,6] + 0.1117803472865718 x[4,7]
   - 0.2014423270617622 x[5,1] - 0.1704000644615447 x[5,2]
   - 0.1702590548326014 x[5,3] - 0.0311429837637484 x[5,4]
   - 0.1801700173240401 x[5,5] - 0.1045888562104669 x[5,6]
   - 0.1117803472865718 x[5,7] >= 0
 findWorstP[5,1]: z - 0.0449829064955317 cashProportion[1]
   + 0.0449829064955317 cashProportion[5] - 0.1465842979667726 x[1,1]
   - 0.00293888322437474 x[1,2] - 0.0545192826725844 x[1,3]
   - 0.2804834163018053 x[1,4] - 0.1578300245906556 x[1,5]
   - 0.1435554489294068 x[1,6] - 0.1691057398188688 x[1,7]
   + 0.1465842979667726 x[5,1] + 0.00293888322437474 x[5,2]
   + 0.0545192826725844 x[5,3] + 0.2804834163018053 x[5,4]
   + 0.1578300245906556 x[5,5] + 0.1435554489294068 x[5,6]
   + 0.1691057398188688 x[5,7] >= 0
 findWorstP[5,2]: z - 0.0449829064955317 cashProportion[2]
   + 0.0449829064955317 cashProportion[5] - 0.1465842979667726 x[2,1]
   - 0.00293888322437474 x[2,2] - 0.0545192826725844 x[2,3]
   - 0.2804834163018053 x[2,4] - 0.1578300245906556 x[2,5]
   - 0.1435554489294068 x[2,6] - 0.1691057398188688 x[2,7]
   + 0.1465842979667726 x[5,1] + 0.00293888322437474 x[5,2]
   + 0.0545192826725844 x[5,3] + 0.2804834163018053 x[5,4]
   + 0.1578300245906556 x[5,5] + 0.1435554489294068 x[5,6]
   + 0.1691057398188688 x[5,7] >= 0
 findWorstP[5,3]: z - 0.0449829064955317 cashProportion[3]
   + 0.0449829064955317 cashProportion[5] - 0.1465842979667726 x[3,1]
   - 0.00293888322437474 x[3,2] - 0.0545192826725844 x[3,3]
   - 0.2804834163018053 x[3,4] - 0.1578300245906556 x[3,5]
   - 0.1435554489294068 x[3,6] - 0.1691057398188688 x[3,7]
   + 0.1465842979667726 x[5,1] + 0.00293888322437474 x[5,2]
   + 0.0545192826725844 x[5,3] + 0.2804834163018053 x[5,4]
   + 0.1578300245906556 x[5,5] + 0.1435554489294068 x[5,6]
   + 0.1691057398188688 x[5,7] >= 0
 findWorstP[5,4]: z - 0.0449829064955317 cashProportion[4]
   + 0.0449829064955317 cashProportion[5] - 0.1465842979667726 x[4,1]
   - 0.00293888322437474 x[4,2] - 0.0545192826725844 x[4,3]
   - 0.2804834163018053 x[4,4] - 0.1578300245906556 x[4,5]
   - 0.1435554489294068 x[4,6] - 0.1691057398188688 x[4,7]
   + 0.1465842979667726 x[5,1] + 0.00293888322437474 x[5,2]
   + 0.0545192826725844 x[5,3] + 0.2804834163018053 x[5,4]
   + 0.1578300245906556 x[5,5] + 0.1435554489294068 x[5,6]
   + 0.1691057398188688 x[5,7] >= 0
Bounds
 z <= 1
 -infinity <= cashProportion[1] <= 1
 -infinity <= cashProportion[2] <= 1
 -infinity <= cashProportion[3] <= 1
 -infinity <= cashProportion[4] <= 1
 -infinity <= cashProportion[5] <= 1
Binaries
 x[1,1] x[1,2] x[1,3] x[1,4] x[1,5] x[1,6] x[1,7] x[2,1] x[2,2] x[2,3]
 x[2,4] x[2,5] x[2,6] x[2,7] x[3,1] x[3,2] x[3,3] x[3,4] x[3,5] x[3,6]
 x[3,7] x[4,1] x[4,2] x[4,3] x[4,4] x[4,5] x[4,6] x[4,7] x[5,1] x[5,2]
 x[5,3] x[5,4] x[5,5] x[5,6] x[5,7]
End
