data/mps_files/q3/87_2.mps
NAME foo
ROWS
 N  OBJ
 E  allocateEach[1]
 E  allocateEach[2]
 E  allocateEach[3]
 E  allocateEach[4]
 E  allocateEach[5]
 E  allocateEach[6]
 E  allocateEach[7]
 E  allocateAllCash
 G  findWorstP[1,2]
 G  findWorstP[1,3]
 G  findWorstP[1,4]
 G  findWorstP[1,5]
 G  findWorstP[2,1]
 G  findWorstP[2,3]
 G  findWorstP[2,4]
 G  findWorstP[2,5]
 G  findWorstP[3,1]
 G  findWorstP[3,2]
 G  findWorstP[3,4]
 G  findWorstP[3,5]
 G  findWorstP[4,1]
 G  findWorstP[4,2]
 G  findWorstP[4,3]
 G  findWorstP[4,5]
 G  findWorstP[5,1]
 G  findWorstP[5,2]
 G  findWorstP[5,3]
 G  findWorstP[5,4]
COLUMNS
    z         OBJ       1
    z         findWorstP[1,2]  1
    z         findWorstP[1,3]  1
    z         findWorstP[1,4]  1
    z         findWorstP[1,5]  1
    z         findWorstP[2,1]  1
    z         findWorstP[2,3]  1
    z         findWorstP[2,4]  1
    z         findWorstP[2,5]  1
    z         findWorstP[3,1]  1
    z         findWorstP[3,2]  1
    z         findWorstP[3,4]  1
    z         findWorstP[3,5]  1
    z         findWorstP[4,1]  1
    z         findWorstP[4,2]  1
    z         findWorstP[4,3]  1
    z         findWorstP[4,5]  1
    z         findWorstP[5,1]  1
    z         findWorstP[5,2]  1
    z         findWorstP[5,3]  1
    z         findWorstP[5,4]  1
    cashProportion[1]  allocateAllCash  1
    cashProportion[1]  findWorstP[1,2]  4.6309159951838479e-02
    cashProportion[1]  findWorstP[1,3]  4.6309159951838479e-02
    cashProportion[1]  findWorstP[1,4]  4.6309159951838479e-02
    cashProportion[1]  findWorstP[1,5]  4.6309159951838479e-02
    cashProportion[1]  findWorstP[2,1]  -3.6094133500168435e-02
    cashProportion[1]  findWorstP[3,1]  -4.1471978766346881e-02
    cashProportion[1]  findWorstP[4,1]  -3.0216349059264336e-02
    cashProportion[1]  findWorstP[5,1]  -4.4982906495531709e-02
    cashProportion[2]  allocateAllCash  1
    cashProportion[2]  findWorstP[1,2]  -4.6309159951838479e-02
    cashProportion[2]  findWorstP[2,1]  3.6094133500168435e-02
    cashProportion[2]  findWorstP[2,3]  3.6094133500168435e-02
    cashProportion[2]  findWorstP[2,4]  3.6094133500168435e-02
    cashProportion[2]  findWorstP[2,5]  3.6094133500168435e-02
    cashProportion[2]  findWorstP[3,2]  -4.1471978766346881e-02
    cashProportion[2]  findWorstP[4,2]  -3.0216349059264336e-02
    cashProportion[2]  findWorstP[5,2]  -4.4982906495531709e-02
    cashProportion[3]  allocateAllCash  1
    cashProportion[3]  findWorstP[1,3]  -4.6309159951838479e-02
    cashProportion[3]  findWorstP[2,3]  -3.6094133500168435e-02
    cashProportion[3]  findWorstP[3,1]  4.1471978766346881e-02
    cashProportion[3]  findWorstP[3,2]  4.1471978766346881e-02
    cashProportion[3]  findWorstP[3,4]  4.1471978766346881e-02
    cashProportion[3]  findWorstP[3,5]  4.1471978766346881e-02
    cashProportion[3]  findWorstP[4,3]  -3.0216349059264336e-02
    cashProportion[3]  findWorstP[5,3]  -4.4982906495531709e-02
    cashProportion[4]  allocateAllCash  1
    cashProportion[4]  findWorstP[1,4]  -4.6309159951838479e-02
    cashProportion[4]  findWorstP[2,4]  -3.6094133500168435e-02
    cashProportion[4]  findWorstP[3,4]  -4.1471978766346881e-02
    cashProportion[4]  findWorstP[4,1]  3.0216349059264336e-02
    cashProportion[4]  findWorstP[4,2]  3.0216349059264336e-02
    cashProportion[4]  findWorstP[4,3]  3.0216349059264336e-02
    cashProportion[4]  findWorstP[4,5]  3.0216349059264336e-02
    cashProportion[4]  findWorstP[5,4]  -4.4982906495531709e-02
    cashProportion[5]  allocateAllCash  1
    cashProportion[5]  findWorstP[1,5]  -4.6309159951838479e-02
    cashProportion[5]  findWorstP[2,5]  -3.6094133500168435e-02
    cashProportion[5]  findWorstP[3,5]  -4.1471978766346881e-02
    cashProportion[5]  findWorstP[4,5]  -3.0216349059264336e-02
    cashProportion[5]  findWorstP[5,1]  4.4982906495531709e-02
    cashProportion[5]  findWorstP[5,2]  4.4982906495531709e-02
    cashProportion[5]  findWorstP[5,3]  4.4982906495531709e-02
    cashProportion[5]  findWorstP[5,4]  4.4982906495531709e-02
    MARKER    'MARKER'                 'INTORG'
    x[1,1]    allocateEach[1]  1
    x[1,1]    findWorstP[1,2]  2.1790003396005062e-01
    x[1,1]    findWorstP[1,3]  2.1790003396005062e-01
    x[1,1]    findWorstP[1,4]  2.1790003396005062e-01
    x[1,1]    findWorstP[1,5]  2.1790003396005062e-01
    x[1,1]    findWorstP[2,1]  -1.9382549689590448e-01
    x[1,1]    findWorstP[3,1]  -5.0291686250656643e-02
    x[1,1]    findWorstP[4,1]  -2.0144232706176221e-01
    x[1,1]    findWorstP[5,1]  -1.4658429796677264e-01
    x[1,2]    allocateEach[2]  1
    x[1,2]    findWorstP[1,2]  3.0239881448550521e-01
    x[1,2]    findWorstP[1,3]  3.0239881448550521e-01
    x[1,2]    findWorstP[1,4]  3.0239881448550521e-01
    x[1,2]    findWorstP[1,5]  3.0239881448550521e-01
    x[1,2]    findWorstP[2,1]  -2.1709418162567973e-01
    x[1,2]    findWorstP[3,1]  -1.6049655782576241e-01
    x[1,2]    findWorstP[4,1]  -1.7040006446154465e-01
    x[1,2]    findWorstP[5,1]  -2.9388832243747377e-03
    x[1,3]    allocateEach[3]  1
    x[1,3]    findWorstP[1,2]  0.00815041215152357
    x[1,3]    findWorstP[1,3]  0.00815041215152357
    x[1,3]    findWorstP[1,4]  0.00815041215152357
    x[1,3]    findWorstP[1,5]  0.00815041215152357
    x[1,3]    findWorstP[2,1]  -1.6362673853409691e-02
    x[1,3]    findWorstP[3,1]  -2.7166910890541623e-01
    x[1,3]    findWorstP[4,1]  -1.7025905483260140e-01
    x[1,3]    findWorstP[5,1]  -5.4519282672584421e-02
    x[1,4]    allocateEach[4]  1
    x[1,4]    findWorstP[1,2]  6.6222098731129012e-02
    x[1,4]    findWorstP[1,3]  6.6222098731129012e-02
    x[1,4]    findWorstP[1,4]  6.6222098731129012e-02
    x[1,4]    findWorstP[1,5]  6.6222098731129012e-02
    x[1,4]    findWorstP[2,1]  -2.0277684200394624e-01
    x[1,4]    findWorstP[3,1]  -3.6827117144516024e-02
    x[1,4]    findWorstP[4,1]  -3.1142983763748435e-02
    x[1,4]    findWorstP[5,1]  -2.8048341630180534e-01
    x[1,5]    allocateEach[5]  1
    x[1,5]    findWorstP[1,2]  1.0567750301009539e-01
    x[1,5]    findWorstP[1,3]  1.0567750301009539e-01
    x[1,5]    findWorstP[1,4]  1.0567750301009539e-01
    x[1,5]    findWorstP[1,5]  1.0567750301009539e-01
    x[1,5]    findWorstP[2,1]  -1.2969825304393856e-01
    x[1,5]    findWorstP[3,1]  -1.3964997649921204e-01
    x[1,5]    findWorstP[4,1]  -1.8017001732404012e-01
    x[1,5]    findWorstP[5,1]  -1.5783002459065557e-01
    x[1,6]    allocateEach[6]  1
    x[1,6]    findWorstP[1,2]  6.7179154703467012e-02
    x[1,6]    findWorstP[1,3]  6.7179154703467012e-02
    x[1,6]    findWorstP[1,4]  6.7179154703467012e-02
    x[1,6]    findWorstP[1,5]  6.7179154703467012e-02
    x[1,6]    findWorstP[2,1]  -1.7546561432215213e-01
    x[1,6]    findWorstP[3,1]  -2.7515275512178938e-01
    x[1,6]    findWorstP[4,1]  -1.0458885621046694e-01
    x[1,6]    findWorstP[5,1]  -1.4355544892940683e-01
    x[1,7]    allocateEach[7]  1
    x[1,7]    findWorstP[1,2]  1.8616282300639064e-01
    x[1,7]    findWorstP[1,3]  1.8616282300639064e-01
    x[1,7]    findWorstP[1,4]  1.8616282300639064e-01
    x[1,7]    findWorstP[1,5]  1.8616282300639064e-01
    x[1,7]    findWorstP[2,1]  -2.8682804754800513e-02
    x[1,7]    findWorstP[3,1]  -2.4440819486300426e-02
    x[1,7]    findWorstP[4,1]  -1.1178034728657184e-01
    x[1,7]    findWorstP[5,1]  -1.6910573981886884e-01
    x[2,1]    allocateEach[1]  1
    x[2,1]    findWorstP[1,2]  -2.1790003396005062e-01
    x[2,1]    findWorstP[2,1]  1.9382549689590448e-01
    x[2,1]    findWorstP[2,3]  1.9382549689590448e-01
    x[2,1]    findWorstP[2,4]  1.9382549689590448e-01
    x[2,1]    findWorstP[2,5]  1.9382549689590448e-01
    x[2,1]    findWorstP[3,2]  -5.0291686250656643e-02
    x[2,1]    findWorstP[4,2]  -2.0144232706176221e-01
    x[2,1]    findWorstP[5,2]  -1.4658429796677264e-01
    x[2,2]    allocateEach[2]  1
    x[2,2]    findWorstP[1,2]  -3.0239881448550521e-01
    x[2,2]    findWorstP[2,1]  2.1709418162567973e-01
    x[2,2]    findWorstP[2,3]  2.1709418162567973e-01
    x[2,2]    findWorstP[2,4]  2.1709418162567973e-01
    x[2,2]    findWorstP[2,5]  2.1709418162567973e-01
    x[2,2]    findWorstP[3,2]  -1.6049655782576241e-01
    x[2,2]    findWorstP[4,2]  -1.7040006446154465e-01
    x[2,2]    findWorstP[5,2]  -2.9388832243747377e-03
    x[2,3]    allocateEach[3]  1
    x[2,3]    findWorstP[1,2]  -0.00815041215152357
    x[2,3]    findWorstP[2,1]  1.6362673853409691e-02
    x[2,3]    findWorstP[2,3]  1.6362673853409691e-02
    x[2,3]    findWorstP[2,4]  1.6362673853409691e-02
    x[2,3]    findWorstP[2,5]  1.6362673853409691e-02
    x[2,3]    findWorstP[3,2]  -2.7166910890541623e-01
    x[2,3]    findWorstP[4,2]  -1.7025905483260140e-01
    x[2,3]    findWorstP[5,2]  -5.4519282672584421e-02
    x[2,4]    allocateEach[4]  1
    x[2,4]    findWorstP[1,2]  -6.6222098731129012e-02
    x[2,4]    findWorstP[2,1]  2.0277684200394624e-01
    x[2,4]    findWorstP[2,3]  2.0277684200394624e-01
    x[2,4]    findWorstP[2,4]  2.0277684200394624e-01
    x[2,4]    findWorstP[2,5]  2.0277684200394624e-01
    x[2,4]    findWorstP[3,2]  -3.6827117144516024e-02
    x[2,4]    findWorstP[4,2]  -3.1142983763748435e-02
    x[2,4]    findWorstP[5,2]  -2.8048341630180534e-01
    x[2,5]    allocateEach[5]  1
    x[2,5]    findWorstP[1,2]  -1.0567750301009539e-01
    x[2,5]    findWorstP[2,1]  1.2969825304393856e-01
    x[2,5]    findWorstP[2,3]  1.2969825304393856e-01
    x[2,5]    findWorstP[2,4]  1.2969825304393856e-01
    x[2,5]    findWorstP[2,5]  1.2969825304393856e-01
    x[2,5]    findWorstP[3,2]  -1.3964997649921204e-01
    x[2,5]    findWorstP[4,2]  -1.8017001732404012e-01
    x[2,5]    findWorstP[5,2]  -1.5783002459065557e-01
    x[2,6]    allocateEach[6]  1
    x[2,6]    findWorstP[1,2]  -6.7179154703467012e-02
    x[2,6]    findWorstP[2,1]  1.7546561432215213e-01
    x[2,6]    findWorstP[2,3]  1.7546561432215213e-01
    x[2,6]    findWorstP[2,4]  1.7546561432215213e-01
    x[2,6]    findWorstP[2,5]  1.7546561432215213e-01
    x[2,6]    findWorstP[3,2]  -2.7515275512178938e-01
    x[2,6]    findWorstP[4,2]  -1.0458885621046694e-01
    x[2,6]    findWorstP[5,2]  -1.4355544892940683e-01
    x[2,7]    allocateEach[7]  1
    x[2,7]    findWorstP[1,2]  -1.8616282300639064e-01
    x[2,7]    findWorstP[2,1]  2.8682804754800513e-02
    x[2,7]    findWorstP[2,3]  2.8682804754800513e-02
    x[2,7]    findWorstP[2,4]  2.8682804754800513e-02
    x[2,7]    findWorstP[2,5]  2.8682804754800513e-02
    x[2,7]    findWorstP[3,2]  -2.4440819486300426e-02
    x[2,7]    findWorstP[4,2]  -1.1178034728657184e-01
    x[2,7]    findWorstP[5,2]  -1.6910573981886884e-01
    x[3,1]    allocateEach[1]  1
    x[3,1]    findWorstP[1,3]  -2.1790003396005062e-01
    x[3,1]    findWorstP[2,3]  -1.9382549689590448e-01
    x[3,1]    findWorstP[3,1]  5.0291686250656643e-02
    x[3,1]    findWorstP[3,2]  5.0291686250656643e-02
    x[3,1]    findWorstP[3,4]  5.0291686250656643e-02
    x[3,1]    findWorstP[3,5]  5.0291686250656643e-02
    x[3,1]    findWorstP[4,3]  -2.0144232706176221e-01
    x[3,1]    findWorstP[5,3]  -1.4658429796677264e-01
    x[3,2]    allocateEach[2]  1
    x[3,2]    findWorstP[1,3]  -3.0239881448550521e-01
    x[3,2]    findWorstP[2,3]  -2.1709418162567973e-01
    x[3,2]    findWorstP[3,1]  1.6049655782576241e-01
    x[3,2]    findWorstP[3,2]  1.6049655782576241e-01
    x[3,2]    findWorstP[3,4]  1.6049655782576241e-01
    x[3,2]    findWorstP[3,5]  1.6049655782576241e-01
    x[3,2]    findWorstP[4,3]  -1.7040006446154465e-01
    x[3,2]    findWorstP[5,3]  -2.9388832243747377e-03
    x[3,3]    allocateEach[3]  1
    x[3,3]    findWorstP[1,3]  -0.00815041215152357
    x[3,3]    findWorstP[2,3]  -1.6362673853409691e-02
    x[3,3]    findWorstP[3,1]  2.7166910890541623e-01
    x[3,3]    findWorstP[3,2]  2.7166910890541623e-01
    x[3,3]    findWorstP[3,4]  2.7166910890541623e-01
    x[3,3]    findWorstP[3,5]  2.7166910890541623e-01
    x[3,3]    findWorstP[4,3]  -1.7025905483260140e-01
    x[3,3]    findWorstP[5,3]  -5.4519282672584421e-02
    x[3,4]    allocateEach[4]  1
    x[3,4]    findWorstP[1,3]  -6.6222098731129012e-02
    x[3,4]    findWorstP[2,3]  -2.0277684200394624e-01
    x[3,4]    findWorstP[3,1]  3.6827117144516024e-02
    x[3,4]    findWorstP[3,2]  3.6827117144516024e-02
    x[3,4]    findWorstP[3,4]  3.6827117144516024e-02
    x[3,4]    findWorstP[3,5]  3.6827117144516024e-02
    x[3,4]    findWorstP[4,3]  -3.1142983763748435e-02
    x[3,4]    findWorstP[5,3]  -2.8048341630180534e-01
    x[3,5]    allocateEach[5]  1
    x[3,5]    findWorstP[1,3]  -1.0567750301009539e-01
    x[3,5]    findWorstP[2,3]  -1.2969825304393856e-01
    x[3,5]    findWorstP[3,1]  1.3964997649921204e-01
    x[3,5]    findWorstP[3,2]  1.3964997649921204e-01
    x[3,5]    findWorstP[3,4]  1.3964997649921204e-01
    x[3,5]    findWorstP[3,5]  1.3964997649921204e-01
    x[3,5]    findWorstP[4,3]  -1.8017001732404012e-01
    x[3,5]    findWorstP[5,3]  -1.5783002459065557e-01
    x[3,6]    allocateEach[6]  1
    x[3,6]    findWorstP[1,3]  -6.7179154703467012e-02
    x[3,6]    findWorstP[2,3]  -1.7546561432215213e-01
    x[3,6]    findWorstP[3,1]  2.7515275512178938e-01
    x[3,6]    findWorstP[3,2]  2.7515275512178938e-01
    x[3,6]    findWorstP[3,4]  2.7515275512178938e-01
    x[3,6]    findWorstP[3,5]  2.7515275512178938e-01
    x[3,6]    findWorstP[4,3]  -1.0458885621046694e-01
    x[3,6]    findWorstP[5,3]  -1.4355544892940683e-01
    x[3,7]    allocateEach[7]  1
    x[3,7]    findWorstP[1,3]  -1.8616282300639064e-01
    x[3,7]    findWorstP[2,3]  -2.8682804754800513e-02
    x[3,7]    findWorstP[3,1]  2.4440819486300426e-02
    x[3,7]    findWorstP[3,2]  2.4440819486300426e-02
    x[3,7]    findWorstP[3,4]  2.4440819486300426e-02
    x[3,7]    findWorstP[3,5]  2.4440819486300426e-02
    x[3,7]    findWorstP[4,3]  -1.1178034728657184e-01
    x[3,7]    findWorstP[5,3]  -1.6910573981886884e-01
    x[4,1]    allocateEach[1]  1
    x[4,1]    findWorstP[1,4]  -2.1790003396005062e-01
    x[4,1]    findWorstP[2,4]  -1.9382549689590448e-01
    x[4,1]    findWorstP[3,4]  -5.0291686250656643e-02
    x[4,1]    findWorstP[4,1]  2.0144232706176221e-01
    x[4,1]    findWorstP[4,2]  2.0144232706176221e-01
    x[4,1]    findWorstP[4,3]  2.0144232706176221e-01
    x[4,1]    findWorstP[4,5]  2.0144232706176221e-01
    x[4,1]    findWorstP[5,4]  -1.4658429796677264e-01
    x[4,2]    allocateEach[2]  1
    x[4,2]    findWorstP[1,4]  -3.0239881448550521e-01
    x[4,2]    findWorstP[2,4]  -2.1709418162567973e-01
    x[4,2]    findWorstP[3,4]  -1.6049655782576241e-01
    x[4,2]    findWorstP[4,1]  1.7040006446154465e-01
    x[4,2]    findWorstP[4,2]  1.7040006446154465e-01
    x[4,2]    findWorstP[4,3]  1.7040006446154465e-01
    x[4,2]    findWorstP[4,5]  1.7040006446154465e-01
    x[4,2]    findWorstP[5,4]  -2.9388832243747377e-03
    x[4,3]    allocateEach[3]  1
    x[4,3]    findWorstP[1,4]  -0.00815041215152357
    x[4,3]    findWorstP[2,4]  -1.6362673853409691e-02
    x[4,3]    findWorstP[3,4]  -2.7166910890541623e-01
    x[4,3]    findWorstP[4,1]  1.7025905483260140e-01
    x[4,3]    findWorstP[4,2]  1.7025905483260140e-01
    x[4,3]    findWorstP[4,3]  1.7025905483260140e-01
    x[4,3]    findWorstP[4,5]  1.7025905483260140e-01
    x[4,3]    findWorstP[5,4]  -5.4519282672584421e-02
    x[4,4]    allocateEach[4]  1
    x[4,4]    findWorstP[1,4]  -6.6222098731129012e-02
    x[4,4]    findWorstP[2,4]  -2.0277684200394624e-01
    x[4,4]    findWorstP[3,4]  -3.6827117144516024e-02
    x[4,4]    findWorstP[4,1]  3.1142983763748435e-02
    x[4,4]    findWorstP[4,2]  3.1142983763748435e-02
    x[4,4]    findWorstP[4,3]  3.1142983763748435e-02
    x[4,4]    findWorstP[4,5]  3.1142983763748435e-02
    x[4,4]    findWorstP[5,4]  -2.8048341630180534e-01
    x[4,5]    allocateEach[5]  1
    x[4,5]    findWorstP[1,4]  -1.0567750301009539e-01
    x[4,5]    findWorstP[2,4]  -1.2969825304393856e-01
    x[4,5]    findWorstP[3,4]  -1.3964997649921204e-01
    x[4,5]    findWorstP[4,1]  1.8017001732404012e-01
    x[4,5]    findWorstP[4,2]  1.8017001732404012e-01
    x[4,5]    findWorstP[4,3]  1.8017001732404012e-01
    x[4,5]    findWorstP[4,5]  1.8017001732404012e-01
    x[4,5]    findWorstP[5,4]  -1.5783002459065557e-01
    x[4,6]    allocateEach[6]  1
    x[4,6]    findWorstP[1,4]  -6.7179154703467012e-02
    x[4,6]    findWorstP[2,4]  -1.7546561432215213e-01
    x[4,6]    findWorstP[3,4]  -2.7515275512178938e-01
    x[4,6]    findWorstP[4,1]  1.0458885621046694e-01
    x[4,6]    findWorstP[4,2]  1.0458885621046694e-01
    x[4,6]    findWorstP[4,3]  1.0458885621046694e-01
    x[4,6]    findWorstP[4,5]  1.0458885621046694e-01
    x[4,6]    findWorstP[5,4]  -1.4355544892940683e-01
    x[4,7]    allocateEach[7]  1
    x[4,7]    findWorstP[1,4]  -1.8616282300639064e-01
    x[4,7]    findWorstP[2,4]  -2.8682804754800513e-02
    x[4,7]    findWorstP[3,4]  -2.4440819486300426e-02
    x[4,7]    findWorstP[4,1]  1.1178034728657184e-01
    x[4,7]    findWorstP[4,2]  1.1178034728657184e-01
    x[4,7]    findWorstP[4,3]  1.1178034728657184e-01
    x[4,7]    findWorstP[4,5]  1.1178034728657184e-01
    x[4,7]    findWorstP[5,4]  -1.6910573981886884e-01
    x[5,1]    allocateEach[1]  1
    x[5,1]    findWorstP[1,5]  -2.1790003396005062e-01
    x[5,1]    findWorstP[2,5]  -1.9382549689590448e-01
    x[5,1]    findWorstP[3,5]  -5.0291686250656643e-02
    x[5,1]    findWorstP[4,5]  -2.0144232706176221e-01
    x[5,1]    findWorstP[5,1]  1.4658429796677264e-01
    x[5,1]    findWorstP[5,2]  1.4658429796677264e-01
    x[5,1]    findWorstP[5,3]  1.4658429796677264e-01
    x[5,1]    findWorstP[5,4]  1.4658429796677264e-01
    x[5,2]    allocateEach[2]  1
    x[5,2]    findWorstP[1,5]  -3.0239881448550521e-01
    x[5,2]    findWorstP[2,5]  -2.1709418162567973e-01
    x[5,2]    findWorstP[3,5]  -1.6049655782576241e-01
    x[5,2]    findWorstP[4,5]  -1.7040006446154465e-01
    x[5,2]    findWorstP[5,1]  2.9388832243747377e-03
    x[5,2]    findWorstP[5,2]  2.9388832243747377e-03
    x[5,2]    findWorstP[5,3]  2.9388832243747377e-03
    x[5,2]    findWorstP[5,4]  2.9388832243747377e-03
    x[5,3]    allocateEach[3]  1
    x[5,3]    findWorstP[1,5]  -0.00815041215152357
    x[5,3]    findWorstP[2,5]  -1.6362673853409691e-02
    x[5,3]    findWorstP[3,5]  -2.7166910890541623e-01
    x[5,3]    findWorstP[4,5]  -1.7025905483260140e-01
    x[5,3]    findWorstP[5,1]  5.4519282672584421e-02
    x[5,3]    findWorstP[5,2]  5.4519282672584421e-02
    x[5,3]    findWorstP[5,3]  5.4519282672584421e-02
    x[5,3]    findWorstP[5,4]  5.4519282672584421e-02
    x[5,4]    allocateEach[4]  1
    x[5,4]    findWorstP[1,5]  -6.6222098731129012e-02
    x[5,4]    findWorstP[2,5]  -2.0277684200394624e-01
    x[5,4]    findWorstP[3,5]  -3.6827117144516024e-02
    x[5,4]    findWorstP[4,5]  -3.1142983763748435e-02
    x[5,4]    findWorstP[5,1]  2.8048341630180534e-01
    x[5,4]    findWorstP[5,2]  2.8048341630180534e-01
    x[5,4]    findWorstP[5,3]  2.8048341630180534e-01
    x[5,4]    findWorstP[5,4]  2.8048341630180534e-01
    x[5,5]    allocateEach[5]  1
    x[5,5]    findWorstP[1,5]  -1.0567750301009539e-01
    x[5,5]    findWorstP[2,5]  -1.2969825304393856e-01
    x[5,5]    findWorstP[3,5]  -1.3964997649921204e-01
    x[5,5]    findWorstP[4,5]  -1.8017001732404012e-01
    x[5,5]    findWorstP[5,1]  1.5783002459065557e-01
    x[5,5]    findWorstP[5,2]  1.5783002459065557e-01
    x[5,5]    findWorstP[5,3]  1.5783002459065557e-01
    x[5,5]    findWorstP[5,4]  1.5783002459065557e-01
    x[5,6]    allocateEach[6]  1
    x[5,6]    findWorstP[1,5]  -6.7179154703467012e-02
    x[5,6]    findWorstP[2,5]  -1.7546561432215213e-01
    x[5,6]    findWorstP[3,5]  -2.7515275512178938e-01
    x[5,6]    findWorstP[4,5]  -1.0458885621046694e-01
    x[5,6]    findWorstP[5,1]  1.4355544892940683e-01
    x[5,6]    findWorstP[5,2]  1.4355544892940683e-01
    x[5,6]    findWorstP[5,3]  1.4355544892940683e-01
    x[5,6]    findWorstP[5,4]  1.4355544892940683e-01
    x[5,7]    allocateEach[7]  1
    x[5,7]    findWorstP[1,5]  -1.8616282300639064e-01
    x[5,7]    findWorstP[2,5]  -2.8682804754800513e-02
    x[5,7]    findWorstP[3,5]  -2.4440819486300426e-02
    x[5,7]    findWorstP[4,5]  -1.1178034728657184e-01
    x[5,7]    findWorstP[5,1]  1.6910573981886884e-01
    x[5,7]    findWorstP[5,2]  1.6910573981886884e-01
    x[5,7]    findWorstP[5,3]  1.6910573981886884e-01
    x[5,7]    findWorstP[5,4]  1.6910573981886884e-01
    MARKER    'MARKER'                 'INTEND'
RHS
    RHS1      allocateEach[1]  1
    RHS1      allocateEach[2]  1
    RHS1      allocateEach[3]  1
    RHS1      allocateEach[4]  1
    RHS1      allocateEach[5]  1
    RHS1      allocateEach[6]  1
    RHS1      allocateEach[7]  1
    RHS1      allocateAllCash  1
BOUNDS
 UP BND1      z         1
 MI BND1      cashProportion[1]
 UP BND1      cashProportion[1]  1
 MI BND1      cashProportion[2]
 UP BND1      cashProportion[2]  1
 MI BND1      cashProportion[3]
 UP BND1      cashProportion[3]  1
 MI BND1      cashProportion[4]
 UP BND1      cashProportion[4]  1
 MI BND1      cashProportion[5]
 UP BND1      cashProportion[5]  1
 BV BND1      x[1,1]  
 BV BND1      x[1,2]  
 BV BND1      x[1,3]  
 BV BND1      x[1,4]  
 BV BND1      x[1,5]  
 BV BND1      x[1,6]  
 BV BND1      x[1,7]  
 BV BND1      x[2,1]  
 BV BND1      x[2,2]  
 BV BND1      x[2,3]  
 BV BND1      x[2,4]  
 BV BND1      x[2,5]  
 BV BND1      x[2,6]  
 BV BND1      x[2,7]  
 BV BND1      x[3,1]  
 BV BND1      x[3,2]  
 BV BND1      x[3,3]  
 BV BND1      x[3,4]  
 BV BND1      x[3,5]  
 BV BND1      x[3,6]  
 BV BND1      x[3,7]  
 BV BND1      x[4,1]  
 BV BND1      x[4,2]  
 BV BND1      x[4,3]  
 BV BND1      x[4,4]  
 BV BND1      x[4,5]  
 BV BND1      x[4,6]  
 BV BND1      x[4,7]  
 BV BND1      x[5,1]  
 BV BND1      x[5,2]  
 BV BND1      x[5,3]  
 BV BND1      x[5,4]  
 BV BND1      x[5,5]  
 BV BND1      x[5,6]  
 BV BND1      x[5,7]  
ENDATA
